NAME: rue_15_4
TYPE: TSP
DIMENSION: 15
EDGE_WEIGHT_TYPE: EUC_2D
NODE_COORD_SECTION
1 38 18
2 10 12
3 32 34
4 30 13
5 35 20
6 20 5
7 20 13
8 11 5
9 36 5
10 12 18
11 2 6
12 8 14
13 1 36
14 34 25
15 26 28

